MARKOV
917
 2 2 2 2 2 2 2 2 2 2 2 2 2 2 2 2 2 2 2 2 2 2 2 2 2 2 2 2 2 2 2 2 2 2 2 2 2 2 2 2 2 2 2 2 2 2 2 2 2 2 2 2 2 2 2 2 2 2 2 2 2 2 2 2 2 2 2 2 2 2 2 2 2 2 2 2 2 2 2 2 2 2 2 2 2 2 2 2 2 2 2 2 2 2 2 2 2 2 2 2 2 2 2 2 2 2 2 2 2 2 2 2 2 2 2 2 2 2 2 2 2 2 2 2 2 2 2 2 2 2 2 2 2 2 2 2 2 2 2 2 2 2 2 2 2 2 2 2 2 2 2 2 2 2 2 2 2 2 2 2 2 2 2 2 2 2 2 2 2 2 2 2 2 2 2 2 2 2 2 2 2 2 2 2 2 2 2 2 2 2 2 2 2 2 2 2 2 2 2 2 2 2 2 2 2 2 2 2 2 2 2 2 2 2 2 2 2 2 2 2 2 2 2 2 2 2 2 2 2 2 2 2 2 2 2 2 2 2 2 2 2 2 2 2 2 2 2 2 2 2 2 2 2 2 2 2 2 2 2 2 2 2 2 2 2 2 2 2 2 2 2 2 2 2 2 2 2 2 2 2 2 2 2 2 2 2 2 2 2 2 2 2 2 2 2 2 2 2 2 2 2 2 2 2 2 2 2 2 2 2 2 2 2 2 2 2 2 2 2 2 2 2 2 2 2 2 2 2 2 2 2 2 2 2 2 2 2 2 2 2 2 2 2 2 2 2 2 2 2 2 2 2 2 2 2 2 2 2 2 2 2 2 2 2 2 2 2 2 2 2 2 2 2 2 2 2 2 2 2 2 2 2 2 2 2 2 2 2 2 2 2 2 2 2 2 2 2 2 2 2 2 2 2 2 2 2 2 2 2 2 2 2 2 2 2 2 2 2 2 2 2 2 2 2 2 2 2 2 2 2 2 2 2 2 2 2 2 2 2 2 2 2 2 2 2 2 2 2 2 2 2 2 2 2 2 2 2 2 2 2 2 2 2 2 2 2 2 2 2 2 2 2 2 2 2 2 2 2 2 2 2 2 2 2 2 2 2 2 2 2 2 2 2 2 2 2 2 2 2 2 2 2 2 2 2 2 2 2 2 2 2 2 2 2 2 2 2 2 2 2 2 2 2 2 2 2 2 2 2 2 2 2 2 2 2 2 2 2 2 2 2 2 2 2 2 2 2 2 2 2 2 2 2 2 2 2 2 2 2 2 2 2 2 2 2 2 2 2 2 2 2 2 2 2 2 2 2 2 2 2 2 2 2 2 2 2 2 2 2 2 2 2 2 2 2 2 2 2 2 2 2 2 2 2 2 2 2 2 2 2 2 2 2 2 2 2 2 2 2 2 2 2 2 2 2 2 2 2 2 2 2 2 2 2 2 2 2 2 2 2 2 2 2 2 2 2 2 2 2 2 2 2 2 2 2 2 2 2 2 2 2 2 2 2 2 2 2 2 2 2 2 2 2 2 2 2 2 2 2 2 2 2 2 2 2 2 2 2 2 2 2 2 2 2 2 2 2 2 2 2 2 2 2 2 2 2 2 2 2 2 2 2 2 2 2 2 2 2 2 2 2 2 2 2 2 2 2 2 2 2 2 2 2 2 2 2 2 2 2 2 2 2 2 2 2 2 2 2 2 2 2 2 2 2 2 2 2 2 2 2 2 2 2 2 2 2 2 2 2 2 2 2 2 2 2 2 2 2 2 2 2 2 2 2 2 2 2 2 2 2 2 2 2 2 2 2 2 2 2 2 2 2 2 2 2 2 2 2 2 2 2 2 2 2 2 2 2 2 2 2 2 2 2 2 2 2 2 2 2 2 2 2 2 2 2 2 2 2 2 2 2 2 2 2 2 2 2 2 2 2 2 2 2 2 2 2 2 2 2 2 2 2 2 2 2 2 2 2 2 2 2 2 2 2 2 2 2 2 2 2 2 2 2 2 2 2 2 2 2 2 2 2 2 2 2 2 2 2 2 2 2 2 2 2 2 2 2 2 2 2 2 2 2 2 2 2 2
927
3	109 205 916 
3	76 915 916 
3	119 914 915 
3	233 913 914 
3	264 912 913 
3	157 911 912 
3	34 910 911 
3	366 909 910 
3	328 908 909 
3	263 907 908 
3	352 906 907 
3	154 905 906 
3	287 904 905 
3	178 903 904 
3	241 902 903 
3	267 901 902 
3	206 900 901 
1	900 
1	234 
3	171 275 899 
3	137 898 899 
3	0 897 898 
3	284 896 897 
3	245 895 896 
3	335 894 895 
3	64 893 894 
3	15 892 893 
3	169 891 892 
3	252 890 891 
3	60 889 890 
3	367 888 889 
3	12 887 888 
3	363 886 887 
3	71 885 886 
3	343 884 885 
3	11 883 884 
3	348 882 883 
3	116 881 882 
3	274 880 881 
3	232 879 880 
3	100 878 879 
3	18 877 878 
3	311 876 877 
3	271 875 876 
3	332 874 875 
3	24 873 874 
3	300 872 873 
3	259 871 872 
3	345 870 871 
3	197 869 870 
3	102 868 869 
3	223 867 868 
3	355 866 867 
3	305 865 866 
3	151 864 865 
3	297 863 864 
3	126 862 863 
3	17 861 862 
3	209 860 861 
3	247 859 860 
3	196 858 859 
3	217 857 858 
3	321 856 857 
3	327 855 856 
3	134 854 855 
3	195 853 854 
3	283 852 853 
3	258 851 852 
3	214 850 851 
3	135 849 850 
3	270 848 849 
3	138 847 848 
3	34 846 847 
3	42 845 846 
3	128 844 845 
3	139 843 844 
3	334 842 843 
3	212 841 842 
3	255 840 841 
3	222 839 840 
3	161 838 839 
3	243 837 838 
3	83 836 837 
3	356 835 836 
3	10 834 835 
3	312 833 834 
3	231 832 833 
3	253 831 832 
3	198 830 831 
3	218 829 830 
3	254 828 829 
3	205 827 828 
3	362 826 827 
3	124 825 826 
3	191 824 825 
3	203 823 824 
3	88 822 823 
3	285 821 822 
3	277 820 821 
3	279 819 820 
3	20 818 819 
3	13 817 818 
3	70 816 817 
3	159 815 816 
3	309 814 815 
3	155 813 814 
3	227 812 813 
3	226 811 812 
3	240 810 811 
3	80 809 810 
3	201 808 809 
1	808 
3	104 205 807 
3	71 806 807 
3	313 805 806 
3	339 804 805 
3	230 803 804 
3	215 802 803 
3	270 801 802 
3	29 800 801 
3	175 799 800 
3	363 798 799 
3	279 797 798 
1	797 
3	275 284 796 
3	90 795 796 
3	113 794 795 
3	323 793 794 
3	154 792 793 
3	60 791 792 
3	66 790 791 
3	363 789 790 
3	115 788 789 
3	343 787 788 
3	246 786 787 
3	204 785 786 
3	143 784 785 
3	49 783 784 
3	177 782 783 
3	162 781 782 
3	41 780 781 
3	276 779 780 
3	311 778 779 
3	332 777 778 
3	300 776 777 
3	259 775 776 
3	197 774 775 
3	331 773 774 
3	339 772 773 
3	318 771 772 
3	102 770 771 
3	328 769 770 
3	305 768 769 
3	123 767 768 
3	151 766 767 
3	127 765 766 
3	313 764 765 
3	112 763 764 
3	75 762 763 
3	23 761 762 
3	134 760 761 
3	195 759 760 
3	308 758 759 
3	135 757 758 
3	322 756 757 
3	262 755 756 
3	57 754 755 
3	95 753 754 
3	270 752 753 
3	138 751 752 
3	357 750 751 
3	110 749 750 
3	98 748 749 
3	139 747 748 
3	67 746 747 
3	334 745 746 
3	178 744 745 
3	206 743 744 
3	329 742 743 
3	104 741 742 
3	106 740 741 
3	222 739 740 
3	96 738 739 
3	19 737 738 
3	179 736 737 
3	84 735 736 
3	83 734 735 
3	346 733 734 
3	299 732 733 
3	291 731 732 
3	253 730 731 
3	33 729 730 
3	79 728 729 
3	8 727 728 
3	254 726 727 
3	77 725 726 
3	192 724 725 
3	205 723 724 
3	92 722 723 
3	260 721 722 
3	28 720 721 
3	124 719 720 
3	215 718 719 
3	158 717 718 
3	175 716 717 
3	295 715 716 
3	330 714 715 
3	277 713 714 
3	279 712 713 
3	111 711 712 
3	13 710 711 
3	228 709 710 
3	87 708 709 
3	78 707 708 
3	230 706 707 
3	225 705 706 
3	159 704 705 
3	155 703 704 
3	337 702 703 
3	131 701 702 
3	289 700 701 
3	250 699 700 
3	171 698 699 
3	176 697 698 
3	137 696 697 
3	76 695 696 
3	0 694 695 
3	245 693 694 
3	335 692 693 
3	64 691 692 
3	85 690 691 
3	56 689 690 
3	252 688 689 
3	333 687 688 
3	12 686 687 
3	287 685 686 
3	349 684 685 
3	45 683 684 
3	317 682 683 
3	71 681 682 
3	11 680 681 
3	348 679 680 
3	224 678 679 
3	116 677 678 
3	274 676 677 
3	164 675 676 
3	320 674 675 
3	268 673 674 
3	326 672 673 
3	24 671 672 
3	91 670 671 
3	156 669 670 
3	355 668 669 
3	237 667 668 
3	47 666 667 
3	172 665 666 
3	297 664 665 
3	126 663 664 
3	209 662 663 
3	267 661 662 
3	247 660 661 
3	199 659 660 
3	196 658 659 
3	217 657 658 
3	168 656 657 
3	103 655 656 
3	265 654 655 
3	321 653 654 
3	283 652 653 
3	153 651 652 
3	302 650 651 
3	174 649 650 
3	214 648 649 
3	365 647 648 
3	280 646 647 
3	4 645 646 
3	34 644 645 
3	46 643 644 
3	42 642 643 
3	128 641 642 
3	256 640 641 
3	212 639 640 
3	255 638 639 
3	25 637 638 
3	243 636 637 
3	356 635 636 
3	292 634 635 
3	29 633 634 
3	238 632 633 
3	231 631 632 
3	198 630 631 
3	362 629 630 
3	191 628 629 
3	108 627 628 
3	68 626 627 
3	65 625 626 
3	285 624 625 
3	22 623 624 
3	20 622 623 
3	9 621 622 
3	70 620 621 
3	38 619 620 
3	226 618 619 
3	240 617 618 
3	80 616 617 
3	201 615 616 
1	615 
3	137 275 614 
3	99 613 614 
3	183 612 613 
3	101 611 612 
3	149 610 611 
3	335 609 610 
3	64 608 609 
3	152 607 608 
3	85 606 607 
3	113 605 606 
3	74 604 605 
3	142 603 604 
3	257 602 603 
3	333 601 602 
3	252 600 601 
3	107 599 600 
3	298 598 599 
3	60 597 598 
3	185 596 597 
3	12 595 596 
3	93 594 595 
3	239 593 594 
3	261 592 593 
3	211 591 592 
3	272 590 591 
3	173 589 590 
3	30 588 589 
3	273 587 588 
3	351 586 587 
3	109 585 586 
3	150 584 585 
3	6 583 584 
3	71 582 583 
3	105 581 582 
3	204 580 581 
3	11 579 580 
3	358 578 579 
3	319 577 578 
3	336 576 577 
3	49 575 576 
3	86 574 575 
3	274 573 574 
3	148 572 573 
3	61 571 572 
3	44 570 571 
3	210 569 570 
3	62 568 569 
3	140 567 568 
3	202 566 567 
3	170 565 566 
3	3 564 565 
3	73 563 564 
3	353 562 563 
3	318 561 562 
3	102 560 561 
3	144 559 560 
3	223 558 559 
3	114 557 558 
3	278 556 557 
3	89 555 556 
3	47 554 555 
3	297 553 554 
3	190 552 553 
3	50 551 552 
3	160 550 551 
3	247 549 550 
3	282 548 549 
3	184 547 548 
3	72 546 547 
3	125 545 546 
3	166 544 545 
3	40 543 544 
3	32 542 543 
3	82 541 542 
3	288 540 541 
3	220 539 540 
3	193 538 539 
3	94 537 538 
3	52 536 537 
3	314 535 536 
3	364 534 535 
3	283 533 534 
3	180 532 533 
3	153 531 532 
3	146 530 531 
3	302 529 530 
3	290 528 529 
3	214 527 528 
3	135 526 527 
3	120 525 526 
3	303 524 525 
3	244 523 524 
3	262 522 523 
3	138 521 522 
3	34 520 521 
3	315 519 520 
3	54 518 519 
3	42 517 518 
3	194 516 517 
3	296 515 516 
3	212 514 515 
3	229 513 514 
3	266 512 513 
3	324 511 512 
3	106 510 511 
3	118 509 510 
3	133 508 509 
3	251 507 508 
3	187 506 507 
3	59 505 506 
3	294 504 505 
3	269 503 504 
3	356 502 503 
3	21 501 502 
3	346 500 501 
3	58 499 500 
3	359 498 499 
3	304 497 498 
3	312 496 497 
3	236 495 496 
3	181 494 495 
3	198 493 494 
3	253 492 493 
3	33 491 492 
3	188 490 491 
3	200 489 490 
3	208 488 489 
3	145 487 488 
3	1 486 487 
3	310 485 486 
3	205 484 485 
3	27 483 484 
3	163 482 483 
3	260 481 482 
3	69 480 481 
3	248 479 480 
3	14 478 479 
3	129 477 478 
3	165 476 477 
3	158 475 476 
3	295 474 475 
3	350 473 474 
3	235 472 473 
3	360 471 472 
3	26 470 471 
3	55 469 470 
3	242 468 469 
3	277 467 468 
3	228 466 467 
3	221 465 466 
3	182 464 465 
3	35 463 464 
3	78 462 463 
3	39 461 462 
3	354 460 461 
3	122 459 460 
3	368 458 459 
3	141 457 458 
3	289 456 457 
3	80 455 456 
3	342 454 455 
3	344 453 454 
1	453 
3	31 345 452 
3	64 451 452 
3	260 450 451 
3	338 449 450 
3	156 448 449 
3	14 447 448 
3	81 446 447 
3	301 445 446 
3	286 444 445 
3	323 443 444 
3	51 442 443 
3	130 441 442 
3	325 440 441 
3	306 439 440 
3	16 438 439 
3	66 437 438 
3	347 436 437 
3	281 435 436 
3	37 434 435 
3	22 433 434 
3	229 432 433 
3	106 431 432 
3	115 430 431 
3	5 429 430 
3	59 428 429 
3	167 427 428 
3	36 426 427 
3	207 425 426 
3	186 424 425 
3	316 423 424 
3	265 422 423 
3	2 421 422 
3	341 420 421 
3	340 419 420 
3	117 418 419 
3	308 417 418 
3	48 416 417 
3	307 415 416 
3	7 414 415 
3	216 413 414 
3	121 412 413 
1	412 
3	137 365 411 
3	135 410 411 
3	97 409 410 
3	138 408 409 
3	154 407 408 
3	213 406 407 
3	43 405 406 
3	12 404 405 
3	279 403 404 
3	111 402 403 
3	249 401 402 
3	241 400 401 
3	178 399 400 
3	63 398 399 
3	53 397 398 
3	150 396 397 
3	293 395 396 
3	136 394 395 
3	147 393 394 
3	356 392 393 
3	189 391 392 
3	274 390 391 
3	291 389 390 
3	352 388 389 
3	134 387 388 
3	132 386 387 
3	219 385 386 
3	326 384 385 
1	384 
3	92 106 383 
3	9 382 383 
3	348 381 382 
3	25 380 381 
3	112 379 380 
3	124 378 379 
3	322 377 378 
3	168 376 377 
3	155 375 376 
3	128 374 375 
3	8 373 374 
3	79 372 373 
3	254 371 372 
3	361 370 371 
3	317 369 370 
1	369 
1	99 
1	152 
1	90 
1	74 
1	298 
1	323 
1	60 
1	185 
1	261 
1	351 
1	115 
1	105 
1	319 
1	136 
1	49 
1	86 
1	162 
1	62 
1	276 
1	307 
1	73 
1	271 
1	332 
1	339 
1	197 
1	318 
1	278 
1	89 
1	16 
1	241 
1	190 
1	160 
1	184 
1	112 
1	5 
1	220 
1	23 
1	316 
1	352 
1	327 
1	134 
1	195 
1	364 
1	135 
1	262 
1	95 
1	270 
1	139 
1	296 
1	334 
1	178 
1	266 
1	206 
1	329 
1	53 
1	133 
1	222 
1	96 
1	19 
1	294 
1	83 
1	21 
1	58 
1	359 
1	10 
1	236 
1	218 
1	33 
1	79 
1	254 
1	205 
1	124 
1	215 
1	175 
1	158 
1	295 
1	277 
1	87 
1	182 
1	225 
1	122 
1	368 
1	171 
1	76 
1	245 
1	101 
1	149 
1	335 
1	64 
1	85 
1	97 
1	169 
1	56 
1	338 
1	367 
1	12 
1	239 
1	30 
1	45 
1	63 
1	317 
1	109 
1	71 
1	348 
1	224 
1	336 
1	207 
1	61 
1	232 
1	44 
1	210 
1	2 
1	18 
1	170 
1	164 
1	320 
1	223 
1	156 
1	114 
1	355 
1	237 
1	47 
1	306 
1	126 
1	249 
1	267 
1	247 
1	125 
1	193 
1	217 
1	264 
1	94 
1	283 
1	180 
1	153 
1	146 
1	302 
1	174 
1	214 
1	120 
1	280 
1	244 
1	4 
1	34 
1	46 
1	42 
1	128 
1	118 
1	251 
1	25 
1	59 
1	161 
1	147 
1	269 
1	243 
1	356 
1	157 
1	29 
1	238 
1	231 
1	340 
1	145 
1	1 
1	27 
1	163 
1	203 
1	119 
1	108 
1	14 
1	88 
1	68 
1	165 
1	81 
1	286 
1	51 
1	65 
1	350 
1	235 
1	347 
1	26 
1	285 
1	242 
1	22 
1	9 
1	70 
1	221 
1	309 
1	38 
1	132 
1	80 
1	201 
1	275 
1	284 
1	183 
1	15 
1	113 
1	257 
1	263 
1	154 
1	66 
1	325 
1	272 
1	211 
1	363 
1	173 
1	343 
1	6 
1	204 
1	246 
1	143 
1	177 
1	140 
1	202 
1	41 
1	311 
1	300 
1	259 
1	331 
1	102 
1	144 
1	328 
1	305 
1	123 
1	130 
1	151 
1	17 
1	72 
1	127 
1	313 
1	32 
1	288 
1	75 
1	52 
1	314 
1	308 
1	258 
1	361 
1	31 
1	303 
1	322 
1	57 
1	138 
1	357 
1	110 
1	54 
1	98 
1	67 
1	229 
1	324 
1	104 
1	106 
1	187 
1	234 
1	179 
1	84 
1	346 
1	299 
1	304 
1	291 
1	312 
1	253 
1	8 
1	77 
1	310 
1	192 
1	92 
1	260 
1	28 
1	69 
1	248 
1	213 
1	330 
1	111 
1	279 
1	55 
1	37 
1	13 
1	228 
1	78 
1	189 
1	230 
1	39 
1	354 
1	159 
1	155 
1	337 
1	131 
1	289 
1	250 
1	342 
1	121 
1	137 
1	176 
1	0 
1	142 
1	333 
1	252 
1	107 
1	93 
1	287 
1	349 
1	273 
1	150 
1	11 
1	358 
1	116 
1	274 
1	148 
1	366 
1	100 
1	48 
1	3 
1	219 
1	268 
1	326 
1	24 
1	345 
1	91 
1	353 
1	43 
1	172 
1	297 
1	209 
1	50 
1	282 
1	166 
1	40 
1	82 
1	199 
1	196 
1	168 
1	103 
1	186 
1	265 
1	321 
1	7 
1	290 
1	365 
1	315 
1	194 
1	281 
1	256 
1	212 
1	255 
1	292 
1	181 
1	198 
1	117 
1	188 
1	200 
1	208 
1	362 
1	191 
1	129 
1	233 
1	301 
1	360 
1	20 
1	293 
1	167 
1	35 
1	36 
1	227 
1	341 
1	226 
1	240 
1	141 
1	216 
1	344 
0	

8
 1 0 0.01 0.99 0.1 0.9 0.001 0.999
8
 1 0 0 1 0.5 0 0.5 1
8
 1 0 0 1 0.5 0 0.5 1
8
 1 0 0 1 0.5 0 0.5 1
8
 1 0 0 1 0.05 0 0.95 1
8
 1 0 0 1 0.5 0 0.5 1
8
 1 0 0 1 0.5 0 0.5 1
8
 1 0 0 1 0.2 0 0.8 1
8
 1 0 0 1 0.5 0 0.5 1
8
 1 0 0 1 0.5 0 0.5 1
8
 1 0 0 1 0.05 0 0.95 1
8
 1 0 0 1 0.01 0 0.99 1
8
 1 0 0 1 0.5 0 0.5 1
8
 1 0 0 1 0.01 0 0.99 1
8
 1 0 0 1 0 0 1 1
8
 1 0 0 1 0.5 0 0.5 1
8
 1 0 0 1 0.2 0 0.8 1
2
 0.03 1
2
 0 0.8
8
 1 0 0.9 0.1 0.05 0.95 0.045 0.955
8
 1 0 0 1 0.9 0 0.1 1
8
 1 0 0 1 0.05 0 0.95 1
8
 1 0 0 1 0.05 0 0.95 1
8
 1 0 0 1 0.05 0 0.95 1
8
 1 0 0 1 0.9 0 0.1 1
8
 1 0 0 1 0.05 0 0.95 1
8
 1 0 0 1 0.3 0 0.7 1
8
 1 0 0 1 0.3 0 0.7 1
8
 1 0 0 1 0.1 0 0.9 1
8
 1 0 0 1 0.9 0 0.1 1
8
 1 0 0 1 0.3 0 0.7 1
8
 1 0 0 1 0.05 0 0.95 1
8
 1 0 0 1 0.05 0 0.95 1
8
 1 0 0 1 0.05 0 0.95 1
8
 1 0 0 1 0.05 0 0.95 1
8
 1 0 0 1 0.05 0 0.95 1
8
 1 0 0 1 0.05 0 0.95 1
8
 1 0 0 1 0.05 0 0.95 1
8
 1 0 0 1 0.5 0 0.5 1
8
 1 0 0 1 0.3 0 0.7 1
8
 1 0 0 1 0.5 0 0.5 1
8
 1 0 0 1 0.9 0 0.1 1
8
 1 0 0 1 0.05 0 0.95 1
8
 1 0 0 1 0.3 0 0.7 1
8
 1 0 0 1 0.05 0 0.95 1
8
 1 0 0 1 0.05 0 0.95 1
8
 1 0 0 1 0.05 0 0.95 1
8
 1 0 0 1 0.05 0 0.95 1
8
 1 0 0 1 0.5 0 0.5 1
8
 1 0 0 1 0.4 0 0.6 1
8
 1 0 0 1 0.9 0 0.1 1
8
 1 0 0 1 0.5 0 0.5 1
8
 1 0 0 1 0.7 0 0.3 1
8
 1 0 0 1 0.01 0 0.99 1
8
 1 0 0 1 0.9 0 0.1 1
8
 1 0 0 1 0.9 0 0.1 1
8
 1 0 0 1 0.05 0 0.95 1
8
 1 0 0 1 0.4 0 0.6 1
8
 1 0 0 1 0.9 0 0.1 1
8
 1 0 0 1 0.9 0 0.1 1
8
 1 0 0 1 0.75 0 0.25 1
8
 1 0 0 1 0.05 0 0.95 1
8
 1 0 0 1 0.05 0 0.95 1
8
 1 0 0 1 0.3 0 0.7 1
8
 1 0 0 1 0.9 0 0.1 1
8
 1 0 0 1 0.5 0 0.5 1
8
 1 0 0 1 0.9 0 0.1 1
8
 1 0 0 1 0.3 0 0.7 1
8
 1 0 0 1 0.05 0 0.95 1
8
 1 0 0 1 0.9 0 0.1 1
8
 1 0 0 1 0.5 0 0.5 1
8
 1 0 0 1 0.9 0 0.1 1
8
 1 0 0 1 0.9 0 0.1 1
8
 1 0 0 1 0.9 0 0.1 1
8
 1 0 0 1 0.05 0 0.95 1
8
 1 0 0 1 0.05 0 0.95 1
8
 1 0 0 1 0.05 0 0.95 1
8
 1 0 0 1 0.05 0 0.95 1
8
 1 0 0 1 0.05 0 0.95 1
8
 1 0 0 1 0.05 0 0.95 1
8
 1 0 0 1 0.3 0 0.7 1
8
 1 0 0 1 0.05 0 0.95 1
8
 1 0 0 1 0.05 0 0.95 1
8
 1 0 0 1 0.9 0 0.1 1
8
 1 0 0 1 0.3 0 0.7 1
8
 1 0 0 1 0.5 0 0.5 1
8
 1 0 0 1 0.05 0 0.95 1
8
 1 0 0 1 0.1 0 0.9 1
8
 1 0 0 1 0.9 0 0.1 1
8
 1 0 0 1 0.89 0 0.11 1
8
 1 0 0 1 0.05 0 0.95 1
8
 1 0 0 1 0.5 0 0.5 1
8
 1 0 0 1 0.9 0 0.1 1
8
 1 0 0 1 0.89 0 0.11 1
8
 1 0 0 1 0.05 0 0.95 1
8
 1 0 0 1 0.5 0 0.5 1
8
 1 0 0 1 0.09 0 0.91 1
8
 1 0 0 1 0.05 0 0.95 1
8
 1 0 0 1 0.02 0 0.98 1
8
 1 0 0 1 0.4 0 0.6 1
8
 1 0 0 1 0.05 0 0.95 1
8
 1 0 0 1 0.2 0 0.8 1
8
 1 0 0 1 0.05 0 0.95 1
8
 1 0 0 1 0.05 0 0.95 1
8
 1 0 0 1 0.3 0 0.7 1
8
 1 0 0 1 0.05 0 0.95 1
8
 1 0 0 1 0.4 0 0.6 1
8
 1 0 0 1 0.05 0 0.95 1
8
 1 0 0 1 0.05 0 0.95 1
8
 1 0 0 1 0.9 0 0.1 1
8
 1 0 0 1 0.05 0 0.95 1
2
 0.03 1
8
 1 0 0 1 0 1 0 1
8
 1 0 0 1 0 0 1 1
8
 1 0 0 1 0 0 1 1
8
 1 0 0 1 0 0 1 1
8
 1 0 0 1 0 0 1 1
8
 1 0 0 1 0 0 1 1
8
 1 0 0 1 0 0 1 1
8
 1 0 0 1 0 0 1 1
8
 1 0 0 1 0 0 1 1
8
 1 0 0 1 0 0 1 1
8
 1 0 0 1 0 0 1 1
2
 0.03 1
8
 1 0 0 1 0.9 0.1 0 1
8
 1 0 0 1 0.2 0 0.8 1
8
 1 0 0 1 0.4 0 0.6 1
8
 1 0 0 1 0.5 0 0.5 1
8
 1 0 0 1 0 0 1 1
8
 1 0 0 1 0.9 0 0.1 1
8
 1 0 0 1 0.5 0 0.5 1
8
 1 0 0 1 0.89 0 0.11 1
8
 1 0 0 1 0.5 0 0.5 1
8
 1 0 0 1 0 0 1 1
8
 1 0 0 1 0.89 0 0.11 1
8
 1 0 0 1 0.5 0 0.5 1
8
 1 0 0 1 0.2 0 0.8 1
8
 1 0 0 1 0.4 0 0.6 1
8
 1 0 0 1 0.1 0 0.9 1
8
 1 0 0 1 0.5 0 0.5 1
8
 1 0 0 1 0.5 0 0.5 1
8
 1 0 0 1 0.1 0 0.9 1
8
 1 0 0 1 0 0 1 1
8
 1 0 0 1 0.5 0 0.5 1
8
 1 0 0 1 0.01 0 0.99 1
8
 1 0 0 1 0 0 1 1
8
 1 0 0 1 0 0 1 1
8
 1 0 0 1 0 0 1 1
8
 1 0 0 1 0 0 1 1
8
 1 0 0 1 0.5 0 0.5 1
8
 1 0 0 1 0.9 0 0.1 1
8
 1 0 0 1 0.5 0 0.5 1
8
 1 0 0 1 0 0 1 1
8
 1 0 0 1 0.5 0 0.5 1
8
 1 0 0 1 0.9 0 0.1 1
8
 1 0 0 1 0.5 0 0.5 1
8
 1 0 0 1 0.1 0 0.9 1
8
 1 0 0 1 0 0 1 1
8
 1 0 0 1 0.1 0 0.9 1
8
 1 0 0 1 0.5 0 0.5 1
8
 1 0 0 1 0.9 0 0.1 1
8
 1 0 0 1 0.5 0 0.5 1
8
 1 0 0 1 0.5 0 0.5 1
8
 1 0 0 1 0.9 0 0.1 1
8
 1 0 0 1 0.09 0 0.91 1
8
 1 0 0 1 0.5 0 0.5 1
8
 1 0 0 1 0.1 0 0.9 1
8
 1 0 0 1 0.5 0 0.5 1
8
 1 0 0 1 0.5 0 0.5 1
8
 1 0 0 1 0.9 0 0.1 1
8
 1 0 0 1 0.09 0 0.91 1
8
 1 0 0 1 0.5 0 0.5 1
8
 1 0 0 1 0.5 0 0.5 1
8
 1 0 0 1 0 0 1 1
8
 1 0 0 1 0.5 0 0.5 1
8
 1 0 0 1 0 0 1 1
8
 1 0 0 1 0 0 1 1
8
 1 0 0 1 0.5 0 0.5 1
8
 1 0 0 1 0.1 0 0.9 1
8
 1 0 0 1 0.5 0 0.5 1
8
 1 0 0 1 0.57 0 0.43 1
8
 1 0 0 1 0 0 1 1
8
 1 0 0 1 0 0 1 1
8
 1 0 0 1 0.5 0 0.5 1
8
 1 0 0 1 0.5 0 0.5 1
8
 1 0 0 1 0.9 0 0.1 1
8
 1 0 0 1 0 0 1 1
8
 1 0 0 1 0.5 0 0.5 1
8
 1 0 0 1 0.1 0 0.9 1
8
 1 0 0 1 0.5 0 0.5 1
8
 1 0 0 1 0.1 0 0.9 1
8
 1 0 0 1 0.5 0 0.5 1
8
 1 0 0 1 0.4 0 0.6 1
8
 1 0 0 1 0.5 0 0.5 1
8
 1 0 0 1 0 0 1 1
8
 1 0 0 1 0.5 0 0.5 1
8
 1 0 0 1 0.9 0 0.1 1
8
 1 0 0 1 0 0 1 1
8
 1 0 0 1 0.5 0 0.5 1
8
 1 0 0 1 0.89 0 0.11 1
8
 1 0 0 1 0.5 0 0.5 1
8
 1 0 0 1 0.5 0 0.5 1
8
 1 0 0 1 0 0 1 1
8
 1 0 0 1 0.5 0 0.5 1
8
 1 0 0 1 0 0 1 1
8
 1 0 0 1 0.4 0 0.6 1
8
 1 0 0 1 0.5 0 0.5 1
8
 1 0 0 1 0 0 1 1
8
 1 0 0 1 0 0 1 1
8
 1 0 0 1 0.1 0 0.9 1
8
 1 0 0 1 0.6 0 0.4 1
8
 1 0 0 1 0.5 0 0.5 1
8
 1 0 0 1 0.1 0 0.9 1
8
 1 0 0 1 0.4 0 0.6 1
8
 1 0 0 1 0 0 1 1
8
 1 0 0 1 0.5 0 0.5 1
8
 1 0 0 1 0 0 1 1
8
 1 0 0 1 0 0 1 1
8
 1 0 0 1 0.1 0 0.9 1
8
 1 0 0 1 0.59 0 0.41 1
8
 1 0 0 1 0 0 1 1
8
 1 0 0 1 0.4 0 0.6 1
8
 1 0 0 1 0 0 1 1
8
 1 0 0 1 0.5 0 0.5 1
8
 1 0 0 1 0.9 0 0.1 1
8
 1 0 0 1 0.5 0 0.5 1
8
 1 0 0 1 0 0 1 1
8
 1 0 0 1 0 0 1 1
8
 1 0 0 1 0.9 0 0.1 1
8
 1 0 0 1 0.6 0 0.4 1
8
 1 0 0 1 0.4 0 0.6 1
8
 1 0 0 1 0.5 0 0.5 1
8
 1 0 0 1 0.1 0 0.9 1
8
 1 0 0 1 0.4 0 0.6 1
8
 1 0 0 1 0 0 1 1
8
 1 0 0 1 0.5 0 0.5 1
8
 1 0 0 1 0.09 0 0.91 1
8
 1 0 0 1 0 0 1 1
8
 1 0 0 1 0 0 1 1
8
 1 0 0 1 0.5 0 0.5 1
8
 1 0 0 1 0 0 1 1
8
 1 0 0 1 0 0 1 1
8
 1 0 0 1 0.89 0 0.11 1
8
 1 0 0 1 0 0 1 1
8
 1 0 0 1 0.5 0 0.5 1
8
 1 0 0 1 0.5 0 0.5 1
8
 1 0 0 1 0.5 0 0.5 1
8
 1 0 0 1 0.5 0 0.5 1
8
 1 0 0 1 0.5 0 0.5 1
8
 1 0 0 1 0 0 1 1
8
 1 0 0 1 0.5 0 0.5 1
8
 1 0 0 1 0.4 0 0.6 1
8
 1 0 0 1 0.7 0 0.3 1
8
 1 0 0 1 0.5 0 0.5 1
8
 1 0 0 1 0.89 0 0.11 1
8
 1 0 0 1 0.5 0 0.5 1
8
 1 0 0 1 0.9 0 0.1 1
8
 1 0 0 1 0 0 1 1
8
 1 0 0 1 0.9 0 0.1 1
8
 1 0 0 1 0.5 0 0.5 1
8
 1 0 0 1 0.5 0 0.5 1
8
 1 0 0 1 0 0 1 1
8
 1 0 0 1 0.75 0 0.25 1
8
 1 0 0 1 0 0 1 1
8
 1 0 0 1 0.09 0 0.91 1
8
 1 0 0 1 0.5 0 0.5 1
8
 1 0 0 1 0.5 0 0.5 1
8
 1 0 0 1 0 0 1 1
8
 1 0 0 1 0.9 0 0.1 1
8
 1 0 0 1 0.7 0 0.3 1
8
 1 0 0 1 0.4 0 0.6 1
8
 1 0 0 1 0.1 0 0.9 1
8
 1 0 0 1 0 0 1 1
8
 1 0 0 1 0.6 0 0.4 1
8
 1 0 0 1 0.5 0 0.5 1
8
 1 0 0 1 0.4 0 0.6 1
8
 1 0 0 1 0.9 0 0.1 1
8
 1 0 0 1 0.5 0 0.5 1
8
 1 0 0 1 0.9 0 0.1 1
8
 1 0 0 1 0 0 1 1
8
 1 0 0 1 0 0 1 1
8
 1 0 0 1 0 0 1 1
8
 1 0 0 1 0 0 1 1
8
 1 0 0 1 0.09 0 0.91 1
8
 1 0 0 1 0 0 1 1
8
 1 0 0 1 0.9 0 0.1 1
8
 1 0 0 1 0.5 0 0.5 1
8
 1 0 0 1 0 0 1 1
8
 1 0 0 1 0 0 1 1
8
 1 0 0 1 0 0 1 1
8
 1 0 0 1 0.9 0 0.1 1
8
 1 0 0 1 0.9 0 0.1 1
8
 1 0 0 1 0 0 1 1
8
 1 0 0 1 0.05 0 0.95 1
8
 1 0 0 1 0.5 0 0.5 1
8
 1 0 0 1 0.5 0 0.5 1
8
 1 0 0 1 0 0 1 1
8
 1 0 0 1 0.5 0 0.5 1
8
 1 0 0 1 0 0 1 1
8
 1 0 0 1 0.1 0 0.9 1
8
 1 0 0 1 0 0 1 1
8
 1 0 0 1 0.5 0 0.5 1
8
 1 0 0 1 0 0 1 1
8
 1 0 0 1 0 0 1 1
8
 1 0 0 1 0.9 0 0.1 1
8
 1 0 0 1 0.01 0 0.99 1
2
 0.03 1
8
 1 0 0.9 0.1 0.9 0.1 0.81 0.19
8
 1 0 0 1 0 0 1 1
8
 1 0 0 1 0.3 0 0.7 1
8
 1 0 0 1 0.05 0 0.95 1
8
 1 0 0 1 0.5 0 0.5 1
8
 1 0 0 1 0.9 0 0.1 1
8
 1 0 0 1 0 0 1 1
8
 1 0 0 1 0.5 0 0.5 1
8
 1 0 0 1 0.5 0 0.5 1
8
 1 0 0 1 0.5 0 0.5 1
8
 1 0 0 1 0.89 0 0.11 1
8
 1 0 0 1 0.9 0 0.1 1
8
 1 0 0 1 0.9 0 0.1 1
8
 1 0 0 1 0.5 0 0.5 1
8
 1 0 0 1 0.9 0 0.1 1
8
 1 0 0 1 0.9 0 0.1 1
8
 1 0 0 1 0.5 0 0.5 1
8
 1 0 0 1 0.9 0 0.1 1
8
 1 0 0 1 0 0 1 1
8
 1 0 0 1 0 0 1 1
8
 1 0 0 1 0.89 0 0.11 1
8
 1 0 0 1 0.9 0 0.1 1
8
 1 0 0 1 0.9 0 0.1 1
8
 1 0 0 1 0.5 0 0.5 1
8
 1 0 0 1 0.05 0 0.95 1
8
 1 0 0 1 0.89 0 0.11 1
8
 1 0 0 1 0.9 0 0.1 1
8
 1 0 0 1 0.4 0 0.6 1
8
 1 0 0 1 0.9 0 0.1 1
8
 1 0 0 1 0.9 0 0.1 1
8
 1 0 0 1 0.8 0 0.2 1
8
 1 0 0 1 0.9 0 0.1 1
8
 1 0 0 1 0.8 0 0.2 1
8
 1 0 0 1 0.94 0 0.06 1
8
 1 0 0 1 0.5 0 0.5 1
8
 1 0 0 1 0 0 1 1
8
 1 0 0 1 0.89 0 0.11 1
8
 1 0 0 1 0.3 0 0.7 1
8
 1 0 0 1 0.02 0 0.98 1
8
 1 0 0 1 0.5 0 0.5 1
8
 1 0 0 1 0.9 0 0.1 1
8
 1 0 0 1 0.9 0 0.1 1
8
 1 0 0 1 0.3 0 0.7 1
8
 1 0 0 1 0.9 0 0.1 1
8
 1 0 0 1 0.9 0 0.1 1
8
 1 0 0 1 0.5 0 0.5 1
8
 1 0 0 1 0.3 0 0.7 1
8
 1 0 0 1 0.09 0 0.91 1
8
 1 0 0 1 0.3 0 0.7 1
8
 1 0 0 1 0.9 0 0.1 1
8
 1 0 0 1 0.9 0 0.1 1
8
 1 0 0 1 0.3 0 0.7 1
8
 1 0 0 1 0.94 0 0.06 1
8
 1 0 0 1 0.5 0 0.5 1
8
 1 0 0 1 0.9 0 0.1 1
8
 1 0 0 1 0.79 0 0.21 1
8
 1 0 0 1 0.5 0 0.5 1
8
 1 0 0 1 0.5 0 0.5 1
8
 1 0 0 1 0.9 0 0.1 1
8
 1 0 0 1 0.01 0 0.99 1
8
 1 0 0 1 0.89 0 0.11 1
8
 1 0 0 1 0.8 0 0.2 1
8
 1 0 0 1 0.3 0 0.7 1
8
 1 0 0 1 0.89 0 0.11 1
8
 1 0 0 1 0.9 0 0.1 1
8
 1 0 0 1 0.9 0 0.1 1
8
 1 0 0 1 0.85 0 0.15 1
8
 1 0 0 1 0.89 0 0.11 1
8
 1 0 0 1 0.89 0 0.11 1
8
 1 0 0 1 0.8 0 0.2 1
8
 1 0 0 1 0.89 0 0.11 1
8
 1 0 0 1 0.3 0 0.7 1
8
 1 0 0 1 0.8 0 0.2 1
8
 1 0 0 1 0.9 0 0.1 1
8
 1 0 0 1 0.9 0 0.1 1
8
 1 0 0 1 0.5 0 0.5 1
8
 1 0 0 1 0.5 0 0.5 1
8
 1 0 0 1 0.9 0 0.1 1
8
 1 0 0 1 0.8 0 0.2 1
8
 1 0 0 1 0.01 0 0.99 1
8
 1 0 0 1 0.9 0 0.1 1
8
 1 0 0 1 0.9 0 0.1 1
8
 1 0 0 1 0.8 0 0.2 1
8
 1 0 0 1 0.7 0 0.3 1
8
 1 0 0 1 0.2 0 0.8 1
8
 1 0 0 1 0.05 0 0.95 1
8
 1 0 0 1 0.8 0 0.2 1
8
 1 0 0 1 0.89 0 0.11 1
8
 1 0 0 1 0.9 0 0.1 1
8
 1 0 0 1 0.3 0 0.7 1
8
 1 0 0 1 0.9 0 0.1 1
8
 1 0 0 1 0.9 0 0.1 1
8
 1 0 0 1 0.5 0 0.5 1
8
 1 0 0 1 0.9 0 0.1 1
8
 1 0 0 1 0.5 0 0.5 1
8
 1 0 0 1 0 0 1 1
8
 1 0 0 1 0.4 0 0.6 1
8
 1 0 0 1 0.9 0 0.1 1
8
 1 0 0 1 0.3 0 0.7 1
8
 1 0 0 1 0.8 0 0.2 1
8
 1 0 0 1 0 0 1 1
8
 1 0 0 1 0.89 0 0.11 1
8
 1 0 0 1 0.3 0 0.7 1
8
 1 0 0 1 0.8 0 0.2 1
8
 1 0 0 1 0.61 0 0.39 1
8
 1 0 0 1 0.86 0 0.14 1
8
 1 0 0 1 0.9 0 0.1 1
8
 1 0 0 1 0.94 0 0.06 1
8
 1 0 0 1 0.3 0 0.7 1
8
 1 0 0 1 0.01 0 0.99 1
8
 1 0 0 1 0.9 0 0.1 1
8
 1 0 0 1 0.9 0 0.1 1
8
 1 0 0 1 0.9 0 0.1 1
8
 1 0 0 1 0.9 0 0.1 1
8
 1 0 0 1 0.5 0 0.5 1
8
 1 0 0 1 0.1 0 0.9 1
8
 1 0 0 1 0.9 0 0.1 1
8
 1 0 0 1 0.9 0 0.1 1
8
 1 0 0 1 0.9 0 0.1 1
8
 1 0 0 1 0.9 0 0.1 1
8
 1 0 0 1 0 0 1 1
8
 1 0 0 1 0.9 0 0.1 1
8
 1 0 0 1 0.5 0 0.5 1
8
 1 0 0 1 0.5 0 0.5 1
8
 1 0 0 1 0.1 0 0.9 1
8
 1 0 0 1 0 0 1 1
8
 1 0 0 1 0 0 1 1
8
 1 0 0 1 0.3 0 0.7 1
8
 1 0 0 1 0.5 0 0.5 1
8
 1 0 0 1 0.2 0 0.8 1
8
 1 0 0 1 0 0 1 1
8
 1 0 0 1 0.9 0 0.1 1
8
 1 0 0 1 0.5 0 0.5 1
8
 1 0 0 1 0.89 0 0.11 1
8
 1 0 0 1 0.8 0 0.2 1
8
 1 0 0 1 0.89 0 0.11 1
8
 1 0 0 1 0.89 0 0.11 1
8
 1 0 0 1 0.89 0 0.11 1
8
 1 0 0 1 0.9 0 0.1 1
8
 1 0 0 1 0.5 0 0.5 1
8
 1 0 0 1 0.5 0 0.5 1
8
 1 0 0 1 0.3 0 0.7 1
8
 1 0 0 1 0.9 0 0.1 1
8
 1 0 0 1 0.8 0 0.2 1
8
 1 0 0 1 0.8 0 0.2 1
8
 1 0 0 1 0.5 0 0.5 1
8
 1 0 0 1 0.8 0 0.2 1
8
 1 0 0 1 0.01 0 0.99 1
8
 1 0 0 1 0.5 0 0.5 1
8
 1 0 0 1 0.9 0 0.1 1
8
 1 0 0 1 0 0 1 1
8
 1 0 0 1 0.3 0 0.7 1
8
 1 0 0 1 0.5 0 0.5 1
8
 1 0 0 1 0.4 0 0.6 1
8
 1 0 0 1 0.8 0 0.2 1
8
 1 0 0 1 0.9 0 0.1 1
8
 1 0 0 1 0.9 0 0.1 1
8
 1 0 0 1 0.89 0 0.11 1
8
 1 0 0 1 0.2 0 0.8 1
8
 1 0 0 1 0.9 0 0.1 1
8
 1 0 0 1 0.89 0 0.11 1
8
 1 0 0 1 0.94 0 0.06 1
2
 0.03 1
8
 1 0 0.1 0.9 0.5 0.5 0.05 0.95
8
 1 0 0 1 0.1 0 0.9 1
8
 1 0 0 1 0.89 0 0.11 1
8
 1 0 0 1 0.01 0 0.99 1
8
 1 0 0 1 0.5 0 0.5 1
8
 1 0 0 1 0.89 0 0.11 1
8
 1 0 0 1 0 0 1 1
8
 1 0 0 1 0.89 0 0.11 1
8
 1 0 0 1 0.5 0 0.5 1
8
 1 0 0 1 0.5 0 0.5 1
8
 1 0 0 1 0.01 0 0.99 1
8
 1 0 0 1 0.7 0 0.3 1
8
 1 0 0 1 0.5 0 0.5 1
8
 1 0 0 1 0.7 0 0.3 1
8
 1 0 0 1 0.01 0 0.99 1
8
 1 0 0 1 0.5 0 0.5 1
8
 1 0 0 1 0 0 1 1
8
 1 0 0 1 0.5 0 0.5 1
8
 1 0 0 1 0.89 0 0.11 1
8
 1 0 0 1 0.5 0 0.5 1
8
 1 0 0 1 0.89 0 0.11 1
8
 1 0 0 1 0.78 0 0.22 1
8
 1 0 0 1 0.5 0 0.5 1
8
 1 0 0 1 0.89 0 0.11 1
8
 1 0 0 1 0.1 0 0.9 1
8
 1 0 0 1 0.7 0 0.3 1
8
 1 0 0 1 0.89 0 0.11 1
8
 1 0 0 1 0.5 0 0.5 1
8
 1 0 0 1 0.89 0 0.11 1
8
 1 0 0 1 0.5 0 0.5 1
8
 1 0 0 1 0.5 0 0.5 1
8
 1 0 0 1 0 0 1 1
8
 1 0 0 1 0.89 0 0.11 1
8
 1 0 0 1 0.7 0 0.3 1
8
 1 0 0 1 0.89 0 0.11 1
8
 1 0 0 1 0.5 0 0.5 1
8
 1 0 0 1 0.8 0 0.2 1
8
 1 0 0 1 0.4 0 0.6 1
8
 1 0 0 1 0.89 0 0.11 1
8
 1 0 0 1 0.5 0 0.5 1
8
 1 0 0 1 0.89 0 0.11 1
2
 0.03 1
8
 1 0 0.2 0.8 0.5 0.5 0.1 0.9
8
 1 0 0 1 0.5 0 0.5 1
8
 1 0 0 1 0.5 0 0.5 1
8
 1 0 0 1 0.5 0 0.5 1
8
 1 0 0 1 0.1 0 0.9 1
8
 1 0 0 1 0.05 0 0.95 1
8
 1 0 0 1 0.5 0 0.5 1
8
 1 0 0 1 0.6 0 0.4 1
8
 1 0 0 1 0.4 0 0.6 1
8
 1 0 0 1 0.1 0 0.9 1
8
 1 0 0 1 0.5 0 0.5 1
8
 1 0 0 1 0.01 0 0.99 1
8
 1 0 0 1 0.1 0 0.9 1
8
 1 0 0 1 0.5 0 0.5 1
8
 1 0 0 1 0.09 0 0.91 1
8
 1 0 0 1 0.5 0 0.5 1
8
 1 0 0 1 0.5 0 0.5 1
8
 1 0 0 1 0.5 0 0.5 1
8
 1 0 0 1 0.5 0 0.5 1
8
 1 0 0 1 0.2 0 0.8 1
8
 1 0 0 1 0.05 0 0.95 1
8
 1 0 0 1 0.5 0 0.5 1
8
 1 0 0 1 0.5 0 0.5 1
8
 1 0 0 1 0.05 0 0.95 1
8
 1 0 0 1 0.5 0 0.5 1
8
 1 0 0 1 0.5 0 0.5 1
8
 1 0 0 1 0.5 0 0.5 1
8
 1 0 0 1 0.1 0 0.9 1
2
 0.03 1
8
 1 0 0.57 0.43 0.5 0.5 0.285 0.715
8
 1 0 0 1 0.1 0 0.9 1
8
 1 0 0 1 0.09 0 0.91 1
8
 1 0 0 1 0.5 0 0.5 1
8
 1 0 0 1 0.1 0 0.9 1
8
 1 0 0 1 0.5 0 0.5 1
8
 1 0 0 1 0.5 0 0.5 1
8
 1 0 0 1 0.5 0 0.5 1
8
 1 0 0 1 0.01 0 0.99 1
8
 1 0 0 1 0.5 0 0.5 1
8
 1 0 0 1 0.5 0 0.5 1
8
 1 0 0 1 0.4 0 0.6 1
8
 1 0 0 1 0.1 0 0.9 1
8
 1 0 0 1 0.01 0 0.99 1
8
 1 0 0 1 0.2 0 0.8 1
2
 0.03 1
2
 0.99995 5e-05
2
 0.9999 0.0001
2
 0.99999 1e-05
2
 0.9999 0.0001
2
 0.9999 0.0001
2
 0.99999 1e-05
2
 0.99975 0.00025
2
 0.99998 2e-05
2
 0.999993 7e-06
2
 1 4e-08
2
 0.99999 1e-05
2
 0.999999 1.4e-06
2
 0.99995 5e-05
2
 0.9999 0.0001
2
 0.9999 0.0001
2
 0.999977 2.342e-05
2
 0.99989 0.00011
2
 0.99998 2e-05
2
 0.9999 0.0001
2
 0.9999 0.0001
2
 0.99998 2e-05
2
 0.9999 0.0001
2
 0.99998 2e-05
2
 0.99999 1e-05
2
 0.99995 5e-05
2
 0.99974 0.00026
2
 1 1.1e-07
2
 0.99998 2e-05
2
 0.999995 5e-06
2
 0.9998 0.0002
2
 0.99999 1e-05
2
 0.999999 1.26e-06
2
 0.99996 4e-05
2
 0.99998 2e-05
2
 0.9999 0.0001
2
 0.9995 0.0005
2
 0.9999 0.0001
2
 0.9999 0.0001
2
 0.9999 0.0001
2
 0.9991 0.0009
2
 0.99992 8e-05
2
 0.9999 0.0001
2
 0.99989 0.00011
2
 0.9996 0.0004
2
 0.99995 5e-05
2
 0.9995 0.0005
2
 0.99999 1e-05
2
 0.9999 0.0001
2
 0.999999 1e-06
2
 0.9999 0.0001
2
 0.9995 0.0005
2
 0.99999 1e-05
2
 0.99995 5e-05
2
 0.9999 0.0001
2
 0.999 0.001
2
 0.99991 9e-05
2
 0.9996 0.0004
2
 0.99998 2e-05
2
 0.99999 1e-05
2
 0.99986 0.00014
2
 0.9999 0.0001
2
 0.99982 0.00018
2
 0.9999 0.0001
2
 0.99999 1e-05
2
 0.9997 0.0003
2
 0.99995 5e-05
2
 0.99993 7e-05
2
 0.9991 0.0009
2
 0.9998 0.0002
2
 0.9998 0.0002
2
 0.99992 8e-05
2
 0.9999 0.0001
2
 0.99998 2e-05
2
 0.99998 2e-05
2
 0.9997 0.0003
2
 0.9999 0.0001
2
 0.99993 7e-05
2
 0.9999 0.0001
2
 0.99991 9e-05
2
 0.9999 0.0001
2
 1 1e-08
2
 1 4e-08
2
 0.9999 0.0001
2
 0.9999 0.0001
2
 0.9999 0.0001
2
 0.99999 1e-05
2
 0.9999 0.0001
2
 0.999977 2.291e-05
2
 0.9996 0.0004
2
 0.998 0.002
2
 0.999999 1e-06
2
 0.9991 0.0009
2
 0.99989 0.00011
2
 0.99998 2e-05
2
 1 2e-07
2
 0.998 0.002
2
 0.9995 0.0005
2
 0.99998 2.003e-05
2
 0.997 0.003
2
 0.9999 0.0001
2
 0.99987 0.00013
2
 0.9997 0.0003
2
 0.9995 0.0005
2
 0.99995 5e-05
2
 0.99999 1e-05
2
 0.99995 5e-05
2
 0.9999 0.0001
2
 1 2.8e-07
2
 0.999 0.001
2
 0.999991 8.59e-06
2
 0.99995 5e-05
2
 0.99988 0.00012
2
 0.994 0.006
2
 0.999999 1e-06
2
 0.99995 5e-05
2
 0.9999 0.0001
2
 0.9999 0.0001
2
 0.999996 4e-06
2
 0.9999 0.0001
2
 1 1.6e-07
2
 0.9999 0.0001
2
 0.9999 0.0001
2
 0.99901 0.00099
2
 0.9999 0.0001
2
 0.99989 0.00011
2
 0.9999 0.0001
2
 0.999969 3.12e-05
2
 0.999999 1e-06
2
 0.99975 0.00025
2
 0.9999 0.0001
2
 0.9999 0.0001
2
 1 1e-08
2
 0.99999 1e-05
2
 1 1.4e-07
2
 0.9998 0.0002
2
 0.999953 4.733e-05
2
 0.9999 0.0001
2
 0.9999 0.0001
2
 0.9999 0.0001
2
 0.99995 5e-05
2
 0.9995 0.0005
2
 0.99994 6e-05
2
 0.99991 9e-05
2
 0.99991 9e-05
2
 0.9999 0.0001
2
 0.9999 0.0001
2
 0.99995 5e-05
2
 1 2.9e-07
2
 1 6e-08
2
 0.99994 6e-05
2
 0.9998 0.0002
2
 0.998 0.002
2
 0.9979 0.0021
2
 0.999994 6e-06
2
 0.9999 0.0001
2
 0.9998 0.0002
2
 0.999999 1e-06
2
 0.9999 0.0001
2
 0.99997 3e-05
2
 0.99997 3e-05
2
 1 1e-07
2
 0.99997 3e-05
2
 0.999999 1e-06
2
 1 1e-08
2
 0.99998 2e-05
2
 0.9998 0.0002
2
 0.9999 0.0001
2
 0.9999 0.0001
2
 0.9999 0.0001
2
 0.99995 5e-05
2
 0.9999 0.0001
2
 1 1e-08
2
 0.99996 4e-05
2
 0.99995 5e-05
2
 0.99998 2e-05
2
 0.99997 3e-05
2
 0.99998 2e-05
2
 1 1e-07
2
 0.99998 2e-05
2
 1 1e-07
2
 0.9999 0.0001
2
 0.99997 3e-05
2
 0.99999 1e-05
2
 0.99996 4e-05
2
 0.9999 0.0001
2
 0.999585 0.000415
2
 0.9995 0.0005
2
 0.9998 0.0002
2
 0.999 0.001
2
 0.9999 0.0001
2
 0.99993 7e-05
2
 0.9995 0.0005
2
 0.99995 5e-05
2
 0.99997 3e-05
2
 0.9992 0.0008
2
 0.9999 0.0001
2
 0.999999 8.1e-07
2
 0.9986 0.0014
2
 0.999 0.001
2
 0.99999 1e-05
2
 0.9997 0.0003
2
 0.9981 0.0019
2
 0.9999 0.0001
2
 0.99995 5e-05
2
 0.9999 0.0001
2
 0.9999 0.0001
2
 0.99989 0.00011
2
 0.99975 0.00025
2
 0.9999 0.0001
2
 0.99995 5e-05
2
 0.999999 1e-06
2
 0.9996 0.0004
2
 0.99994 6e-05
2
 0.9999 0.0001
2
 0.9999 0.0001
2
 0.99999 1e-05
2
 0.9999 0.0001
2
 0.998 0.002
2
 0.999998 2e-06
2
 0.9999 0.0001
2
 0.99989 0.00011
2
 0.99995 5e-05
2
 0.9999 0.0001
2
 1 1e-07
2
 0.99996 4e-05
2
 0.99946 0.00054
2
 0.9999 0.0001
2
 0.99981 0.00019
2
 0.9999 0.0001
2
 1 1e-08
2
 1 1.7e-07
2
 0.9999 0.0001
2
 1 1.1e-07
2
 0.99997 3e-05
2
 0.99999 1e-05
2
 0.9999 0.0001
2
 0.99998 2e-05
2
 1 1e-07
2
 1 6e-08
2
 0.99996 4e-05
2
 0.9999 0.0001
2
 0.999973 2.7e-05
2
 0.99995 5e-05
2
 0.99999 1e-05
2
 0.9999 0.0001
2
 0.9999 0.0001
2
 0.9991 0.0009
2
 0.9999 0.0001
2
 1 1e-08
2
 0.99985 0.00015
2
 0.9999 0.0001
2
 0.99998 2e-05
2
 0.9998 0.0002
2
 0.9999 0.0001
2
 0.9998 0.0002
2
 0.9995 0.0005
2
 0.99999 1e-05
2
 0.999997 2.88e-06
2
 0.9995 0.0005
2
 0.99922 0.00078
2
 0.9998 0.0002
2
 0.99995 5e-05
2
 0.9998 0.0002
2
 0.9999 0.0001
2
 0.9994 0.0006
2
 0.99999 1e-05
2
 0.9999 0.0001
2
 0.9995 0.0005
2
 0.99999 1e-05
2
 0.9999 0.0001
2
 0.9998 0.0002
2
 0.99984 0.00016
2
 0.9996 0.0004
2
 0.99989 0.00011
2
 0.999 0.001
2
 0.9999 0.0001
2
 0.99997 3e-05
2
 0.999 0.001
2
 0.998 0.002
2
 0.9996 0.0004
2
 0.9999 0.0001
2
 0.99996 4e-05
2
 1 4e-08
2
 0.9999 0.0001
2
 0.99998 2e-05
2
 0.99995 5e-05
2
 0.9995 0.0005
2
 0.9999 0.0001
2
 0.9982 0.0018
2
 0.9999 0.0001
2
 0.99975 0.00025
2
 0.99985 0.00015
2
 0.99996 4e-05
2
 0.9999 0.0001
2
 0.9985 0.0015
2
 0.9999 0.0001
2
 0.99995 5e-05
2
 1 1e-08
2
 0.999784 0.000216
2
 0.9996 0.0004
2
 0.99995 5e-05
2
 0.9995 0.0005
2
 0.999999 6.2e-07
2
 0.99995 5e-05
2
 0.9999 0.0001
2
 0.99998 2e-05
2
 1 1.2e-07
2
 0.99998 2e-05
2
 0.9995 0.0005
2
 0.9996 0.0004
2
 0.99999 1e-05
2
 0.9997 0.0003
2
 0.999997 2.82e-06
2
 0.99998 2e-05
2
 0.99999 1e-05
2
 0.9999 0.0001
2
 0.9995 0.0005
2
 0.9999 0.0001
2
 1 2e-08
2
 0.9994 0.0006
2
 0.9999 0.0001
2
 0.999907 9.332e-05
2
 0.9994 0.0006
2
 0.9999 0.0001
2
 0.999999 5.4e-07
2
 0.9999 0.0001
2
 0.99997 3e-05
2
 0.999999 1e-06
2
 0.99995 5e-05
2
 0.999992 8e-06
2
 0.99975 0.00025
2
 0.9999 0.0001
2
 0.9999 0.0001
2
 0.99999 1e-05
2
 0.9999 0.0001
2
 0.9999 0.0001
2
 0.99999 1e-05
2
 0.999 0.001
2
 0.999 0.001
2
 0.99999 1e-05
2
 0.99991 9e-05
2
 0.99997 3e-05
2
 0.9985 0.0015
2
 0.99995 5e-05
2
 0.9999 0.0001
2
 0.99998 2e-05
2
 0.9999 0.0001
2
 0.9999 0.0001
2
 0.99997 3e-05
2
 0.99994 6e-05
2
 0.99999 1e-05
2
 0.9995 0.0005
2
 0.9999 0.0001
2
 0.9999 0.0001
2
 0.9995 0.0005
2
 0.9999 0.0001
2
 0.99989 0.00011
2
 0.9999 0.0001
2
 0.9995 0.0005
2
 1 1e-07
2
 0.9999 0.0001
2
 0.9999 0.0001
2
 0.9994 0.0006
2
 0.9999 0.0001
2
 0.99997 3e-05
2
 0.99998 2e-05
2
 0.9999 0.0001
2
 0.99988 0.00012
2
 1 5e-07
1
 1

